12      4       
8       9       9       10      
0       0       0       0       0       3       2       3       4       
5       7       0       9       9       2       6       7       
8       0       0       2       0       2       5       6       
2       0       0       0       7       2       7       11      
3       0       2       4       0       1       8       
3       0       9       0       0       3       9       10      11      
6       5       0       4       3       2       9       10      
7       5       9       0       10      1       11      
9       0       8       0       0       1       12      
4       8       5       0       0       1       12      
10      5       0       3       7       1       12      
0       0       0       0       0       0       
